(set-option :produce-models true); benchmark generated from python API
(set-info :status unknown)
(declare-fun l_0_0_9 () Real)
(declare-fun l_0_0_8 () Real)
(declare-fun l_0_0_3 () Real)
(declare-fun l_0_0_2 () Real)
(declare-fun _a_0_ () Real)
(declare-fun l_0_0_7 () Real)
(declare-fun l_0_0_1 () Real)
(declare-fun _a_1_ () Real)
(declare-fun l_0_0_10 () Real)
(declare-fun l_0_0_4 () Real)
(declare-fun _a_2_ () Real)
(declare-fun l_0_0_5 () Real)
(declare-fun l_0_0_11 () Real)
(declare-fun _a_3_ () Real)
(declare-fun l_0_0_6 () Real)
(declare-fun l_0_0_12 () Real)
(declare-fun _a_4_ () Real)
(declare-fun _a_5_ () Real)
(declare-fun l_0_1_9 () Real)
(declare-fun l_0_1_8 () Real)
(declare-fun l_0_1_15 () Real)
(declare-fun l_0_1_14 () Real)
(declare-fun l_0_1_3 () Real)
(declare-fun l_0_1_2 () Real)
(declare-fun l_0_1_7 () Real)
(declare-fun l_0_1_13 () Real)
(declare-fun l_0_1_1 () Real)
(declare-fun l_0_1_18 () Real)
(declare-fun l_0_1_17 () Real)
(declare-fun l_0_1_16 () Real)
(declare-fun l_0_1_12 () Real)
(declare-fun l_0_1_11 () Real)
(declare-fun l_0_1_10 () Real)
(declare-fun l_0_1_5 () Real)
(declare-fun l_0_1_4 () Real)
(declare-fun l_0_1_6 () Real)
(declare-fun l_0_2_9 () Real)
(declare-fun l_0_2_8 () Real)
(declare-fun l_0_2_15 () Real)
(declare-fun l_0_2_14 () Real)
(declare-fun l_0_2_3 () Real)
(declare-fun l_0_2_2 () Real)
(declare-fun l_0_2_7 () Real)
(declare-fun l_0_2_12 () Real)
(declare-fun l_0_2_11 () Real)
(declare-fun l_0_2_10 () Real)
(declare-fun l_0_2_1 () Real)
(declare-fun l_0_2_4 () Real)
(declare-fun l_0_2_6 () Real)
(declare-fun l_0_2_5 () Real)
(declare-fun l_0_2_16 () Real)
(declare-fun l_0_2_13 () Real)
(declare-fun l_0_2_18 () Real)
(declare-fun l_0_2_17 () Real)
(assert
 (let ((?x68 (* l_0_0_9 l_0_0_9)))
 (let ((?x66 (* l_0_0_8 l_0_0_8)))
 (let ((?x65 (- (- _a_0_ (* (* 1.0 l_0_0_2) l_0_0_2)) (* (* 1.0 l_0_0_3) l_0_0_3))))
 (= (- (- ?x65 ?x66) ?x68) 0.0)))))
(assert
 (let ((?x110 (* l_0_0_7 l_0_0_7)))
 (let ((?x94 (* l_0_0_3 l_0_0_3)))
 (let ((?x90 (* l_0_0_2 l_0_0_2)))
 (let ((?x111 (- (+ (+ (- _a_1_ (* (* 1.0 l_0_0_1) l_0_0_1)) ?x90) ?x94) ?x110)))
 (= ?x111 0.0))))))
(assert
 (let ((?x127 (- (- _a_2_ (* (* 2.0 l_0_0_1) l_0_0_4)) (* (* 2.0 l_0_0_10) l_0_0_7))))
 (= ?x127 0.0)))
(assert
 (let ((?x152 (* (* 2.0 l_0_0_3) l_0_0_5)))
 (let ((?x149 (* (* 2.0 l_0_0_2) l_0_0_4)))
 (let ((?x147 (- (- _a_3_ (* (* 2.0 l_0_0_10) l_0_0_8)) (* (* 2.0 l_0_0_11) l_0_0_9))))
 (= (- (- ?x147 ?x149) ?x152) 0.0)))))
(assert
 (let ((?x94 (* l_0_0_3 l_0_0_3)))
 (let ((?x90 (* l_0_0_2 l_0_0_2)))
 (let ((?x184 (* l_0_0_12 l_0_0_12)))
 (let ((?x185 (- (- (- _a_4_ (* l_0_0_10 l_0_0_10)) (* l_0_0_11 l_0_0_11)) ?x184)))
 (let ((?x193 (- (- (+ (+ ?x185 ?x90) ?x94) (* (* 1.0 l_0_0_4) l_0_0_4)) (* (* 1.0 l_0_0_5) l_0_0_5))))
 (= (- ?x193 (* (* 1.0 l_0_0_6) l_0_0_6)) 0.0)))))))
(assert
 (let ((?x224 (- (- _a_5_ (* (* 2.0 l_0_0_1) l_0_0_2)) (* (* 2.0 l_0_0_7) l_0_0_8))))
 (= ?x224 0.0)))
(assert
 (let ((?x215 (* l_0_0_6 l_0_0_6)))
 (let ((?x211 (* l_0_0_5 l_0_0_5)))
 (= (+ (+ (+ (* l_0_0_1 l_0_0_1) (* l_0_0_4 l_0_0_4)) ?x211) ?x215) 0.0))))
(assert
 (let ((?x122 (* 2.0 l_0_0_1)))
 (let ((?x220 (* ?x122 l_0_0_2)))
 (= ?x220 0.0))))
(assert
 (let ((?x122 (* 2.0 l_0_0_1)))
 (let ((?x123 (* ?x122 l_0_0_4)))
 (= ?x123 0.0))))
(assert
 (let ((?x152 (* (* 2.0 l_0_0_3) l_0_0_5)))
 (let ((?x149 (* (* 2.0 l_0_0_2) l_0_0_4)))
 (= (+ ?x149 ?x152) 0.0))))
(assert
 (let ((?x215 (* l_0_0_6 l_0_0_6)))
 (= (+ (+ (* l_0_0_4 l_0_0_4) (* l_0_0_5 l_0_0_5)) ?x215) 0.0)))
(assert
 (let ((?x113 (* l_0_0_1 l_0_0_1)))
 (= ?x113 0.0)))
(assert
 (let ((?x122 (* 2.0 l_0_0_1)))
 (let ((?x220 (* ?x122 l_0_0_2)))
 (= ?x220 0.0))))
(assert
 (let ((?x122 (* 2.0 l_0_0_1)))
 (let ((?x123 (* ?x122 l_0_0_4)))
 (= ?x123 0.0))))
(assert
 (let ((?x152 (* (* 2.0 l_0_0_3) l_0_0_5)))
 (let ((?x149 (* (* 2.0 l_0_0_2) l_0_0_4)))
 (= (+ ?x149 ?x152) 0.0))))
(assert
 (>= l_0_0_1 0.0))
(assert
 (>= l_0_0_3 0.0))
(assert
 (>= l_0_0_6 0.0))
(assert
 (>= l_0_0_7 0.0))
(assert
 (>= l_0_0_9 0.0))
(assert
 (>= l_0_0_12 0.0))
(assert
 (let ((?x272 (* l_0_1_15 l_0_1_15)))
 (let ((?x270 (* l_0_1_14 l_0_1_14)))
 (let ((?x271 (- (* (- _a_0_) (+ (* l_0_1_2 l_0_1_2) (* l_0_1_3 l_0_1_3))) ?x270)))
 (let ((?x280 (+ (+ (- ?x271 ?x272) (* 3.0 (* l_0_1_8 l_0_1_8))) (* 3.0 (* l_0_1_9 l_0_1_9)))))
 (= (+ ?x280 1.0) 0.0))))))
(assert
 (let ((?x304 (- (* (* (* (- 2.0) _a_0_) l_0_1_1) l_0_1_2) (* _a_5_ (+ (* l_0_1_2 l_0_1_2) (* l_0_1_3 l_0_1_3))))))
 (let ((?x311 (+ (- ?x304 (* (* 2.0 l_0_1_13) l_0_1_14)) (* (* 6.0 l_0_1_7) l_0_1_8))))
 (= (+ ?x311 1.0) 0.0))))
(assert
 (let ((?x278 (* l_0_1_9 l_0_1_9)))
 (let ((?x274 (* l_0_1_8 l_0_1_8)))
 (let ((?x368 (* l_0_1_18 l_0_1_18)))
 (let ((?x366 (* l_0_1_17 l_0_1_17)))
 (let ((?x364 (* l_0_1_16 l_0_1_16)))
 (let ((?x361 (* l_0_1_12 l_0_1_12)))
 (let ((?x362 (* 3.0 ?x361)))
 (let ((?x358 (* l_0_1_11 l_0_1_11)))
 (let ((?x359 (* 3.0 ?x358)))
 (let ((?x355 (* l_0_1_10 l_0_1_10)))
 (let ((?x356 (* 3.0 ?x355)))
 (let ((?x350 (+ (* (* 2.0 l_0_1_2) l_0_1_4) (* (* 2.0 l_0_1_3) l_0_1_5))))
 (let ((?x343 (* l_0_1_6 l_0_1_6)))
 (let ((?x344 (+ (+ (* l_0_1_4 l_0_1_4) (* l_0_1_5 l_0_1_5)) ?x343)))
 (let ((?x265 (- _a_0_)))
 (let ((?x354 (- (- (* ?x265 ?x344) (* _a_3_ ?x350)) (* _a_4_ (+ (* l_0_1_2 l_0_1_2) (* l_0_1_3 l_0_1_3))))))
 (let ((?x370 (- (- (- (- (+ (+ (+ ?x354 ?x356) ?x359) ?x362) ?x364) ?x366) ?x368) ?x274)))
 (= (- (- ?x370 ?x278) (/ 1.0 5.0)) 0.0)))))))))))))))))))
(assert
 (let ((?x278 (* l_0_1_9 l_0_1_9)))
 (let ((?x274 (* l_0_1_8 l_0_1_8)))
 (let ((?x450 (* l_0_1_7 l_0_1_7)))
 (let ((?x451 (* 3.0 ?x450)))
 (let ((?x448 (* l_0_1_13 l_0_1_13)))
 (let ((?x443 (- (* (* (- _a_0_) l_0_1_1) l_0_1_1) (* _a_1_ (+ (* l_0_1_2 l_0_1_2) (* l_0_1_3 l_0_1_3))))))
 (let ((?x452 (+ (- (- ?x443 (* (* (* 2.0 _a_5_) l_0_1_1) l_0_1_2)) ?x448) ?x451)))
 (= (- (- ?x452 ?x274) ?x278) 0.0)))))))))
(assert
 (let ((?x350 (+ (* (* 2.0 l_0_1_2) l_0_1_4) (* (* 2.0 l_0_1_3) l_0_1_5))))
 (let ((?x489 (- (* (* (* (- 2.0) _a_0_) l_0_1_1) l_0_1_4) (* _a_2_ (+ (* l_0_1_2 l_0_1_2) (* l_0_1_3 l_0_1_3))))))
 (let ((?x495 (- (- ?x489 (* (* (* 2.0 _a_3_) l_0_1_1) l_0_1_2)) (* _a_5_ ?x350))))
 (let ((?x500 (- (+ ?x495 (* (* 6.0 l_0_1_10) l_0_1_7)) (* (* 2.0 l_0_1_13) l_0_1_16))))
 (= ?x500 0.0))))))
(assert
 (let ((?x350 (+ (* (* 2.0 l_0_1_2) l_0_1_4) (* (* 2.0 l_0_1_3) l_0_1_5))))
 (let ((?x265 (- _a_0_)))
 (let ((?x557 (- (* ?x265 ?x350) (* _a_3_ (+ (* l_0_1_2 l_0_1_2) (* l_0_1_3 l_0_1_3))))))
 (let ((?x562 (+ (+ ?x557 (* (* 6.0 l_0_1_10) l_0_1_8)) (* (* 6.0 l_0_1_11) l_0_1_9))))
 (let ((?x568 (- (- ?x562 (* (* 2.0 l_0_1_14) l_0_1_16)) (* (* 2.0 l_0_1_15) l_0_1_17))))
 (= ?x568 0.0)))))))
(assert
 (= (- (* (* (- _a_1_) l_0_1_1) l_0_1_1) (* l_0_1_7 l_0_1_7)) 0.0))
(assert
 (let ((?x628 (* (* 2.0 l_0_1_7) l_0_1_8)))
 (let ((?x626 (- (* (* (* (- 2.0) _a_1_) l_0_1_1) l_0_1_2) (* (* _a_5_ l_0_1_1) l_0_1_1))))
 (= (- ?x626 ?x628) 0.0))))
(assert
 (let ((?x649 (* 2.0 l_0_1_10)))
 (let ((?x650 (* ?x649 l_0_1_7)))
 (let ((?x648 (- (* (* (* (- 2.0) _a_1_) l_0_1_1) l_0_1_4) (* (* _a_2_ l_0_1_1) l_0_1_1))))
 (= (- ?x648 ?x650) 0.0)))))
(assert
 (let ((?x681 (* (* 2.0 l_0_1_11) l_0_1_9)))
 (let ((?x649 (* 2.0 l_0_1_10)))
 (let ((?x678 (* ?x649 l_0_1_8)))
 (let ((?x350 (+ (* (* 2.0 l_0_1_2) l_0_1_4) (* (* 2.0 l_0_1_3) l_0_1_5))))
 (let ((?x608 (- _a_1_)))
 (let ((?x675 (- (- (* ?x608 ?x350) (* (* (* 2.0 _a_2_) l_0_1_1) l_0_1_2)) (* (* _a_3_ l_0_1_1) l_0_1_1))))
 (let ((?x682 (- (- (- ?x675 (* (* (* 2.0 _a_5_) l_0_1_1) l_0_1_4)) ?x678) ?x681)))
 (= ?x682 0.0)))))))))
(assert
 (let ((?x450 (* l_0_1_7 l_0_1_7)))
 (let ((?x361 (* l_0_1_12 l_0_1_12)))
 (let ((?x358 (* l_0_1_11 l_0_1_11)))
 (let ((?x355 (* l_0_1_10 l_0_1_10)))
 (let ((?x343 (* l_0_1_6 l_0_1_6)))
 (let ((?x344 (+ (+ (* l_0_1_4 l_0_1_4) (* l_0_1_5 l_0_1_5)) ?x343)))
 (let ((?x608 (- _a_1_)))
 (let ((?x723 (- (- (* ?x608 ?x344) (* (* (* 2.0 _a_2_) l_0_1_1) l_0_1_4)) (* (* _a_4_ l_0_1_1) l_0_1_1))))
 (= (- (- (- (- ?x723 ?x355) ?x358) ?x361) ?x450) 0.0))))))))))
(assert
 (let ((?x628 (* (* 2.0 l_0_1_7) l_0_1_8)))
 (let ((?x343 (* l_0_1_6 l_0_1_6)))
 (let ((?x344 (+ (+ (* l_0_1_4 l_0_1_4) (* l_0_1_5 l_0_1_5)) ?x343)))
 (let ((?x350 (+ (* (* 2.0 l_0_1_2) l_0_1_4) (* (* 2.0 l_0_1_3) l_0_1_5))))
 (let ((?x761 (- _a_2_)))
 (let ((?x768 (- (- (* ?x761 ?x350) (* (* (* 2.0 _a_3_) l_0_1_1) l_0_1_4)) (* (* (* 2.0 _a_4_) l_0_1_1) l_0_1_2))))
 (= (- (- ?x768 (* _a_5_ ?x344)) ?x628) 0.0))))))))
(assert
 (let ((?x649 (* 2.0 l_0_1_10)))
 (let ((?x650 (* ?x649 l_0_1_7)))
 (let ((?x343 (* l_0_1_6 l_0_1_6)))
 (let ((?x344 (+ (+ (* l_0_1_4 l_0_1_4) (* l_0_1_5 l_0_1_5)) ?x343)))
 (let ((?x761 (- _a_2_)))
 (let ((?x814 (- (- (* ?x761 ?x344) (* (* (* 2.0 _a_4_) l_0_1_1) l_0_1_4)) ?x650)))
 (= ?x814 0.0))))))))
(assert
 (let ((?x681 (* (* 2.0 l_0_1_11) l_0_1_9)))
 (let ((?x649 (* 2.0 l_0_1_10)))
 (let ((?x678 (* ?x649 l_0_1_8)))
 (let ((?x350 (+ (* (* 2.0 l_0_1_2) l_0_1_4) (* (* 2.0 l_0_1_3) l_0_1_5))))
 (let ((?x343 (* l_0_1_6 l_0_1_6)))
 (let ((?x344 (+ (+ (* l_0_1_4 l_0_1_4) (* l_0_1_5 l_0_1_5)) ?x343)))
 (let ((?x834 (- _a_3_)))
 (= (- (- (- (* ?x834 ?x344) (* _a_4_ ?x350)) ?x678) ?x681) 0.0)))))))))
(assert
 (let ((?x361 (* l_0_1_12 l_0_1_12)))
 (let ((?x358 (* l_0_1_11 l_0_1_11)))
 (let ((?x355 (* l_0_1_10 l_0_1_10)))
 (let ((?x343 (* l_0_1_6 l_0_1_6)))
 (let ((?x344 (+ (+ (* l_0_1_4 l_0_1_4) (* l_0_1_5 l_0_1_5)) ?x343)))
 (let ((?x872 (- _a_4_)))
 (= (- (- (- (* ?x872 ?x344) ?x355) ?x358) ?x361) 0.0))))))))
(assert
 (>= l_0_1_1 0.0))
(assert
 (>= l_0_1_3 0.0))
(assert
 (>= l_0_1_6 0.0))
(assert
 (>= l_0_1_7 0.0))
(assert
 (>= l_0_1_9 0.0))
(assert
 (>= l_0_1_12 0.0))
(assert
 (>= l_0_1_13 0.0))
(assert
 (>= l_0_1_15 0.0))
(assert
 (>= l_0_1_18 0.0))
(assert
 (let ((?x920 (* l_0_2_15 l_0_2_15)))
 (let ((?x918 (* l_0_2_14 l_0_2_14)))
 (let ((?x910 (* 1.0 _a_2_)))
 (let ((?x907 (+ (* (- _a_0_) (+ (* l_0_2_2 l_0_2_2) (* l_0_2_3 l_0_2_3))) _a_0_)))
 (let ((?x915 (+ (- (- (+ ?x907 (* 1.0 _a_1_)) ?x910) (* 1.0 _a_3_)) (* 1.0 _a_4_))))
 (let ((?x924 (- (- (- (+ ?x915 (* 1.0 _a_5_)) ?x918) ?x920) (* (* 3.0 l_0_2_8) l_0_2_8))))
 (= (- ?x924 (* (* 3.0 l_0_2_9) l_0_2_9)) 0.0))))))))
(assert
 (let ((?x981 (* l_0_2_7 l_0_2_7)))
 (let ((?x979 (* l_0_2_12 l_0_2_12)))
 (let ((?x977 (* l_0_2_11 l_0_2_11)))
 (let ((?x975 (* l_0_2_10 l_0_2_10)))
 (let ((?x966 (* 4.0 _a_1_)))
 (let ((?x962 (* l_0_2_6 l_0_2_6)))
 (let ((?x963 (+ (+ (* l_0_2_4 l_0_2_4) (* l_0_2_5 l_0_2_5)) ?x962)))
 (let ((?x608 (- _a_1_)))
 (let ((?x970 (- (+ (* ?x608 ?x963) ?x966) (* (* (* 2.0 _a_2_) l_0_2_1) l_0_2_4))))
 (let ((?x978 (+ (+ (- (+ ?x970 _a_2_) (* (* _a_4_ l_0_2_1) l_0_2_1)) ?x975) ?x977)))
 (= (+ (+ ?x978 ?x979) ?x981) 0.0))))))))))))
(assert
 (let ((?x1011 (* 2.0 l_0_2_10)))
 (let ((?x1012 (* ?x1011 l_0_2_7)))
 (let ((?x1010 (- (+ (* (* (* (- 2.0) _a_1_) l_0_2_1) l_0_2_4) (* 4.0 _a_1_)) (* (* _a_2_ l_0_2_1) l_0_2_1))))
 (= (+ ?x1010 ?x1012) 0.0)))))
(assert
 (let ((?x444 (* 2.0 _a_5_)))
 (let ((?x1039 (+ (* (* 2.0 l_0_2_2) l_0_2_4) (* (* 2.0 l_0_2_3) l_0_2_5))))
 (let ((?x669 (* 2.0 _a_2_)))
 (let ((?x1030 (- (+ (* (* (* (- 2.0) _a_0_) l_0_2_1) l_0_2_4) (* 4.0 _a_1_)) (* _a_2_ (+ (* l_0_2_2 l_0_2_2) (* l_0_2_3 l_0_2_3))))))
 (let ((?x1041 (- (- (- ?x1030 ?x669) (* (* (* 2.0 _a_3_) l_0_2_1) l_0_2_2)) (* _a_5_ ?x1039))))
 (let ((?x1048 (- (- (+ ?x1041 ?x444) (* (* 6.0 l_0_2_10) l_0_2_7)) (* (* 2.0 l_0_2_13) l_0_2_16))))
 (= ?x1048 0.0))))))))
(assert
 (let ((?x981 (* l_0_2_7 l_0_2_7)))
 (= (+ (+ (* (* (- _a_1_) l_0_2_1) l_0_2_1) _a_1_) ?x981) 0.0)))
(assert
 (let ((?x952 (* l_0_2_9 l_0_2_9)))
 (let ((?x946 (* l_0_2_8 l_0_2_8)))
 (let ((?x1130 (* l_0_2_13 l_0_2_13)))
 (let ((?x910 (* 1.0 _a_2_)))
 (let ((?x1122 (* 2.0 _a_1_)))
 (let ((?x1121 (- (* (* (- _a_0_) l_0_2_1) l_0_2_1) (* _a_1_ (+ (* l_0_2_2 l_0_2_2) (* l_0_2_3 l_0_2_3))))))
 (let ((?x1128 (- (+ (- (+ ?x1121 ?x1122) ?x910) _a_4_) (* (* (* 2.0 _a_5_) l_0_2_1) l_0_2_2))))
 (let ((?x1135 (+ (- (- (+ ?x1128 _a_5_) ?x1130) (* (* 3.0 l_0_2_7) l_0_2_7)) ?x946)))
 (= (+ ?x1135 ?x952) 0.0))))))))))
(assert
 (let ((?x1011 (* 2.0 l_0_2_10)))
 (let ((?x1012 (* ?x1011 l_0_2_7)))
 (let ((?x669 (* 2.0 _a_2_)))
 (let ((?x962 (* l_0_2_6 l_0_2_6)))
 (let ((?x963 (+ (+ (* l_0_2_4 l_0_2_4) (* l_0_2_5 l_0_2_5)) ?x962)))
 (let ((?x761 (- _a_2_)))
 (let ((?x1177 (- (+ (* ?x761 ?x963) ?x669) (* (* (* 2.0 _a_4_) l_0_2_1) l_0_2_4))))
 (= (+ ?x1177 ?x1012) 0.0)))))))))
(assert
 (let ((?x952 (* l_0_2_9 l_0_2_9)))
 (let ((?x946 (* l_0_2_8 l_0_2_8)))
 (let ((?x1218 (* l_0_2_18 l_0_2_18)))
 (let ((?x1216 (* l_0_2_17 l_0_2_17)))
 (let ((?x1214 (* l_0_2_16 l_0_2_16)))
 (let ((?x765 (* 2.0 _a_4_)))
 (let ((?x1039 (+ (* (* 2.0 l_0_2_2) l_0_2_4) (* (* 2.0 l_0_2_3) l_0_2_5))))
 (let ((?x910 (* 1.0 _a_2_)))
 (let ((?x962 (* l_0_2_6 l_0_2_6)))
 (let ((?x963 (+ (+ (* l_0_2_4 l_0_2_4) (* l_0_2_5 l_0_2_5)) ?x962)))
 (let ((?x265 (- _a_0_)))
 (let ((?x1203 (- (+ (- (+ (* ?x265 ?x963) ?x910) (* _a_3_ ?x1039)) _a_3_) (* _a_4_ (+ (* l_0_2_2 l_0_2_2) (* l_0_2_3 l_0_2_3))))))
 (let ((?x1210 (- (- (- ?x1203 ?x765) (* (* 3.0 l_0_2_10) l_0_2_10)) (* (* 3.0 l_0_2_11) l_0_2_11))))
 (let ((?x1219 (- (- (- (- ?x1210 (* (* 3.0 l_0_2_12) l_0_2_12)) ?x1214) ?x1216) ?x1218)))
 (= (+ (+ ?x1219 ?x946) ?x952) 0.0))))))))))))))))
(assert
 (let ((?x1304 (* (* 2.0 l_0_2_11) l_0_2_9)))
 (let ((?x1011 (* 2.0 l_0_2_10)))
 (let ((?x1301 (* ?x1011 l_0_2_8)))
 (let ((?x669 (* 2.0 _a_2_)))
 (let ((?x1039 (+ (* (* 2.0 l_0_2_2) l_0_2_4) (* (* 2.0 l_0_2_3) l_0_2_5))))
 (let ((?x608 (- _a_1_)))
 (let ((?x1298 (- (+ (- (* ?x608 ?x1039) (* (* ?x669 l_0_2_1) l_0_2_2)) ?x669) (* (* _a_3_ l_0_2_1) l_0_2_1))))
 (let ((?x1305 (+ (+ (- ?x1298 (* (* (* 2.0 _a_5_) l_0_2_1) l_0_2_4)) ?x1301) ?x1304)))
 (= ?x1305 0.0))))))))))
(assert
 (let ((?x1343 (* (* 2.0 l_0_2_7) l_0_2_8)))
 (let ((?x1341 (- (+ (* (* (* (- 2.0) _a_1_) l_0_2_1) l_0_2_2) _a_2_) (* (* _a_5_ l_0_2_1) l_0_2_1))))
 (= (+ ?x1341 ?x1343) 0.0))))
(assert
 (let ((?x765 (* 2.0 _a_4_)))
 (let ((?x1361 (+ (+ (* (* (* (- 2.0) _a_0_) l_0_2_1) l_0_2_2) (* 1.0 _a_2_)) _a_3_)))
 (let ((?x1364 (- (- ?x1361 ?x765) (* _a_5_ (+ (* l_0_2_2 l_0_2_2) (* l_0_2_3 l_0_2_3))))))
 (let ((?x1369 (- (- ?x1364 (* (* 2.0 l_0_2_13) l_0_2_14)) (* (* 6.0 l_0_2_7) l_0_2_8))))
 (= ?x1369 0.0))))))
(assert
 (let ((?x979 (* l_0_2_12 l_0_2_12)))
 (let ((?x977 (* l_0_2_11 l_0_2_11)))
 (let ((?x975 (* l_0_2_10 l_0_2_10)))
 (let ((?x962 (* l_0_2_6 l_0_2_6)))
 (let ((?x963 (+ (+ (* l_0_2_4 l_0_2_4) (* l_0_2_5 l_0_2_5)) ?x962)))
 (let ((?x872 (- _a_4_)))
 (= (+ (+ (+ (+ (* ?x872 ?x963) _a_4_) ?x975) ?x977) ?x979) 0.0))))))))
(assert
 (let ((?x1343 (* (* 2.0 l_0_2_7) l_0_2_8)))
 (let ((?x962 (* l_0_2_6 l_0_2_6)))
 (let ((?x963 (+ (+ (* l_0_2_4 l_0_2_4) (* l_0_2_5 l_0_2_5)) ?x962)))
 (let ((?x765 (* 2.0 _a_4_)))
 (let ((?x1039 (+ (* (* 2.0 l_0_2_2) l_0_2_4) (* (* 2.0 l_0_2_3) l_0_2_5))))
 (let ((?x761 (- _a_2_)))
 (let ((?x1421 (- (- (* ?x761 ?x1039) (* (* (* 2.0 _a_3_) l_0_2_1) l_0_2_4)) (* (* ?x765 l_0_2_1) l_0_2_2))))
 (= (+ (- (+ ?x1421 ?x765) (* _a_5_ ?x963)) ?x1343) 0.0)))))))))
(assert
 (let ((?x1039 (+ (* (* 2.0 l_0_2_2) l_0_2_4) (* (* 2.0 l_0_2_3) l_0_2_5))))
 (let ((?x265 (- _a_0_)))
 (let ((?x1466 (- (* ?x265 ?x1039) (* _a_3_ (+ (* l_0_2_2 l_0_2_2) (* l_0_2_3 l_0_2_3))))))
 (let ((?x1471 (- (- ?x1466 (* (* 6.0 l_0_2_10) l_0_2_8)) (* (* 6.0 l_0_2_11) l_0_2_9))))
 (let ((?x1477 (- (- ?x1471 (* (* 2.0 l_0_2_14) l_0_2_16)) (* (* 2.0 l_0_2_15) l_0_2_17))))
 (= ?x1477 0.0)))))))
(assert
 (let ((?x1304 (* (* 2.0 l_0_2_11) l_0_2_9)))
 (let ((?x1011 (* 2.0 l_0_2_10)))
 (let ((?x1301 (* ?x1011 l_0_2_8)))
 (let ((?x1039 (+ (* (* 2.0 l_0_2_2) l_0_2_4) (* (* 2.0 l_0_2_3) l_0_2_5))))
 (let ((?x962 (* l_0_2_6 l_0_2_6)))
 (let ((?x963 (+ (+ (* l_0_2_4 l_0_2_4) (* l_0_2_5 l_0_2_5)) ?x962)))
 (let ((?x834 (- _a_3_)))
 (= (+ (+ (- (* ?x834 ?x963) (* _a_4_ ?x1039)) ?x1301) ?x1304) 0.0)))))))))
(assert
 (>= l_0_2_1 0.0))
(assert
 (>= l_0_2_3 0.0))
(assert
 (>= l_0_2_6 0.0))
(assert
 (>= l_0_2_7 0.0))
(assert
 (>= l_0_2_9 0.0))
(assert
 (>= l_0_2_12 0.0))
(assert
 (>= l_0_2_13 0.0))
(assert
 (>= l_0_2_15 0.0))
(assert
 (>= l_0_2_18 0.0))
(check-sat)
(get-model)